(set-option :print-success false)
(set-logic QF_UF)
(declare-sort x55 0)
(declare-sort x74 0)
(declare-fun x86 () x74)
(declare-fun x22 () x74)
(declare-fun x111 () x74)
(declare-fun x95 () x74)
(declare-fun x44 (x74 x74) x74)
(declare-fun x54 (x74 x74) x74)
(declare-fun x59 () x74)
(assert (and (not (= x111 x86)) (and (and (and (not (= x95 x86)) (and (not (= x95 x111)) (and (and (not (= x86 x59)) (and (and (not (= x59 x22)) (not (= x95 x59))) (not (= x111 x59)))) (not (= x95 x22))))) (not (= x111 x22))) (not (= x86 x22)))))
(assert (let ((x103 (x54 x111 x111)) (x6 (x54 x86 x86)) (x64 (x54 x22 x22)) (x123 (x54 x95 x95)) (x147 (x54 x59 x59))) (or (and (not (= x86 x6)) (and (not (= x103 x86)) (and (and (not (= x147 x86)) (not (= x86 x123))) (not (= x86 x64))))) (or (or (and (not (= x22 x6)) (and (and (and (not (= x22 x147)) (not (= x123 x22))) (not (= x22 x64))) (not (= x22 x103)))) (or (and (not (= x6 x95)) (and (and (not (= x64 x95)) (and (not (= x123 x95)) (not (= x95 x147)))) (not (= x103 x95)))) (and (and (and (not (= x59 x64)) (and (not (= x59 x147)) (not (= x123 x59)))) (not (= x103 x59))) (not (= x59 x6))))) (and (not (= x111 x6)) (and (not (= x103 x111)) (and (not (= x111 x64)) (and (not (= x147 x111)) (not (= x111 x123))))))))))
(assert (let ((x147 (x54 x59 x59)) (x159 (x54 x86 x111)) (x104 (x54 x95 x111)) (x149 (x54 x111 x95)) (x13 (x54 x95 x22)) (x6 (x54 x86 x59)) (x43 (x54 x22 x95)) (x109 (x54 x59 x22)) (x83 (x54 x95 x95)) (x123 (x54 x95 x59)) (x126 (x54 x59 x86)) (x14 (x54 x95 x86)) (x53 (x54 x22 x22)) (x16 (x54 x86 x22)) (x151 (x54 x59 x111)) (x103 (x54 x111 x59)) (x102 (x54 x111 x111)) (x64 (x54 x22 x59)) (x89 (x54 x86 x95)) (x5 (x54 x22 x111)) (x46 (x54 x86 x86)) (x137 (x54 x111 x22)) (x45 (x54 x59 x95)) (x82 (x54 x22 x86)) (x138 (x54 x111 x86))) (and (and (and (and (and (not (= x5 x159)) (and (not (= x102 x5)) (and (and (not (= x102 x104)) (and (not (= x104 x5)) (and (not (= x151 x159)) (and (and (not (= x5 x151)) (not (= x104 x151))) (not (= x151 x102)))))) (not (= x159 x104))))) (not (= x159 x102))) (and (and (and (not (= x6 x103)) (and (and (not (= x103 x64)) (and (and (and (not (= x64 x123)) (and (not (= x6 x147)) (and (not (= x103 x147)) (and (not (= x64 x147)) (not (= x147 x123)))))) (not (= x123 x103))) (not (= x6 x123)))) (not (= x64 x6)))) (and (not (= x149 x89)) (and (not (= x89 x43)) (and (not (= x149 x43)) (and (not (= x89 x83)) (and (not (= x149 x83)) (and (not (= x83 x43)) (and (not (= x45 x89)) (and (and (not (= x45 x83)) (not (= x43 x45))) (not (= x45 x149))))))))))) (and (not (= x137 x16)) (and (not (= x16 x53)) (and (and (not (= x13 x16)) (and (not (= x13 x137)) (and (not (= x13 x53)) (and (and (not (= x137 x109)) (and (not (= x109 x13)) (not (= x53 x109)))) (not (= x109 x16)))))) (not (= x53 x137))))))) (and (and (and (not (= x138 x82)) (and (and (not (= x138 x14)) (and (and (not (= x126 x46)) (and (not (= x126 x138)) (and (not (= x82 x126)) (not (= x14 x126))))) (not (= x14 x82)))) (not (= x46 x14)))) (not (= x82 x46))) (not (= x46 x138)))) (and (and (not (= x46 x159)) (and (not (= x46 x16)) (and (and (and (not (= x89 x159)) (and (and (not (= x6 x46)) (and (not (= x6 x159)) (and (not (= x6 x89)) (not (= x16 x6))))) (not (= x16 x89)))) (not (= x89 x46))) (not (= x159 x16))))) (and (and (not (= x138 x102)) (and (and (and (not (= x138 x149)) (and (and (not (= x149 x137)) (and (not (= x138 x103)) (and (not (= x102 x103)) (and (not (= x149 x103)) (not (= x103 x137)))))) (not (= x149 x102)))) (not (= x102 x137))) (not (= x137 x138)))) (and (and (and (and (and (and (not (= x43 x5)) (and (and (not (= x64 x82)) (and (not (= x64 x5)) (and (not (= x64 x43)) (not (= x53 x64))))) (not (= x43 x53)))) (not (= x82 x43))) (not (= x5 x53))) (not (= x53 x82))) (not (= x5 x82))) (and (and (not (= x104 x14)) (and (and (not (= x13 x104)) (and (not (= x83 x14)) (and (not (= x104 x83)) (and (not (= x83 x13)) (and (and (not (= x123 x104)) (and (not (= x83 x123)) (not (= x13 x123)))) (not (= x123 x14))))))) (not (= x13 x14)))) (and (not (= x126 x151)) (and (and (and (not (= x126 x45)) (and (and (not (= x45 x109)) (and (not (= x126 x147)) (and (and (not (= x147 x45)) (not (= x147 x109))) (not (= x147 x151))))) (not (= x45 x151)))) (not (= x109 x151))) (not (= x126 x109)))))))))))
(assert (or (and (not (= x86 (x54 (x54 x86 x86) x86))) (and (and (and (not (= (x54 (x54 x86 x95) x86) x95)) (not (= x59 (x54 (x54 x86 x59) x86)))) (not (= x22 (x54 (x54 x86 x22) x86)))) (not (= x111 (x54 (x54 x86 x111) x86))))) (or (and (and (and (and (not (= x95 (x54 (x54 x111 x95) x111))) (not (= (x54 (x54 x111 x59) x111) x59))) (not (= x22 (x54 (x54 x111 x22) x111)))) (not (= (x54 (x54 x111 x111) x111) x111))) (not (= (x54 (x54 x111 x86) x111) x86))) (or (and (and (and (and (not (= x59 (x54 (x54 x22 x59) x22))) (not (= x95 (x54 (x54 x22 x95) x22)))) (not (= (x54 (x54 x22 x22) x22) x22))) (not (= x111 (x54 (x54 x22 x111) x22)))) (not (= x86 (x54 (x54 x22 x86) x22)))) (or (and (and (and (and (not (= (x54 (x54 x59 x95) x59) x95)) (not (= x59 (x54 (x54 x59 x59) x59)))) (not (= (x54 (x54 x59 x22) x59) x22))) (not (= (x54 (x54 x59 x111) x59) x111))) (not (= x86 (x54 (x54 x59 x86) x59)))) (and (and (not (= (x54 (x54 x95 x111) x95) x111)) (and (and (not (= x95 (x54 (x54 x95 x95) x95))) (not (= (x54 (x54 x95 x59) x95) x59))) (not (= (x54 (x54 x95 x22) x95) x22)))) (not (= (x54 (x54 x95 x86) x95) x86))))))))
(assert (or (and (and (not (= x111 (x54 (x54 x111 x86) x86))) (and (not (= (x54 (x54 x22 x86) x86) x22)) (and (not (= (x54 (x54 x95 x86) x86) x95)) (not (= x59 (x54 (x54 x59 x86) x86)))))) (not (= x86 (x54 (x54 x86 x86) x86)))) (or (and (not (= (x54 (x54 x86 x111) x111) x86)) (and (and (not (= (x54 (x54 x22 x111) x111) x22)) (and (not (= x59 (x54 (x54 x59 x111) x111))) (not (= x95 (x54 (x54 x95 x111) x111))))) (not (= x111 (x54 (x54 x111 x111) x111))))) (or (or (and (and (and (and (not (= (x54 (x54 x95 x59) x59) x95)) (not (= (x54 (x54 x59 x59) x59) x59))) (not (= (x54 (x54 x22 x59) x59) x22))) (not (= x111 (x54 (x54 x111 x59) x59)))) (not (= (x54 (x54 x86 x59) x59) x86))) (and (not (= x86 (x54 (x54 x86 x95) x95))) (and (not (= x111 (x54 (x54 x111 x95) x95))) (and (not (= (x54 (x54 x22 x95) x95) x22)) (and (not (= x59 (x54 (x54 x59 x95) x95))) (not (= (x54 (x54 x95 x95) x95) x95))))))) (and (and (not (= (x54 (x54 x111 x22) x22) x111)) (and (and (not (= (x54 (x54 x59 x22) x22) x59)) (not (= x95 (x54 (x54 x95 x22) x22)))) (not (= x22 (x54 (x54 x22 x22) x22))))) (not (= x86 (x54 (x54 x86 x22) x22))))))))
(assert (or (and (not (= (x54 x86 (x54 x86 x86)) x86)) (and (and (and (not (= x86 (x54 x59 (x54 x86 x59)))) (not (= (x54 x95 (x54 x86 x95)) x86))) (not (= (x54 x22 (x54 x86 x22)) x86))) (not (= (x54 x111 (x54 x86 x111)) x86)))) (or (or (and (not (= x22 (x54 x86 (x54 x22 x86)))) (and (and (and (not (= x22 (x54 x95 (x54 x22 x95)))) (not (= x22 (x54 x59 (x54 x22 x59))))) (not (= x22 (x54 x22 (x54 x22 x22))))) (not (= (x54 x111 (x54 x22 x111)) x22)))) (or (and (not (= (x54 x86 (x54 x95 x86)) x95)) (and (and (and (not (= x95 (x54 x59 (x54 x95 x59)))) (not (= (x54 x95 (x54 x95 x95)) x95))) (not (= (x54 x22 (x54 x95 x22)) x95))) (not (= x95 (x54 x111 (x54 x95 x111)))))) (and (and (and (not (= (x54 x22 (x54 x59 x22)) x59)) (and (not (= x59 (x54 x95 (x54 x59 x95)))) (not (= x59 (x54 x59 (x54 x59 x59)))))) (not (= (x54 x111 (x54 x59 x111)) x59))) (not (= (x54 x86 (x54 x59 x86)) x59))))) (and (and (not (= x111 (x54 x111 (x54 x111 x111)))) (and (not (= (x54 x22 (x54 x111 x22)) x111)) (and (not (= x111 (x54 x95 (x54 x111 x95)))) (not (= (x54 x59 (x54 x111 x59)) x111))))) (not (= x111 (x54 x86 (x54 x111 x86))))))))
(assert (let ((x14 (x54 x95 x86)) (x3 (x54 x86 x95)) (x25 (x54 x86 x111)) (x127 (x54 x86 x86)) (x6 (x54 x59 x111)) (x45 (x54 x59 x86)) (x118 (x54 x22 x22)) (x149 (x54 x22 x59)) (x64 (x54 x59 x95)) (x159 (x54 x95 x22)) (x123 (x54 x59 x59)) (x126 (x54 x95 x111)) (x103 (x54 x59 x22)) (x89 (x54 x111 x59)) (x19 (x54 x111 x111)) (x112 (x54 x111 x86)) (x67 (x54 x111 x22)) (x152 (x54 x86 x22)) (x63 (x54 x22 x86)) (x43 (x54 x95 x59)) (x109 (x54 x86 x59)) (x47 (x54 x111 x95)) (x102 (x54 x95 x95)) (x122 (x54 x22 x111)) (x46 (x54 x22 x95))) (let ((x91 (= x111 x102)) (x129 (= x86 x122)) (x101 (= x111 x118)) (x36 (= x86 x64)) (x151 (= x64 x59)) (x37 (= x109 x86)) (x11 (= x14 x22)) (x26 (= x59 x159)) (x24 (= x149 x22)) (x132 (= x47 x59)) (x87 (= x14 x111)) (x71 (= x95 x127)) (x41 (= x59 x112)) (x139 (= x63 x22)) (x2 (= x89 x95)) (x107 (= x111 x159)) (x105 (= x111 x122)) (x18 (= x111 x152)) (x78 (= x86 x19)) (x30 (= x22 x112)) (x15 (= x95 x19)) (x10 (= x95 x118)) (x143 (= x86 x126)) (x42 (= x111 x63)) (x90 (= x159 x95)) (x116 (= x122 x95)) (x61 (= x95 x25)) (x117 (= x95 x14)) (x51 (= x126 x22)) (x138 (= x102 x95)) (x66 (= x6 x59)) (x148 (= x63 x59)) (x27 (= x22 x102)) (x75 (= x126 x111)) (x52 (= x47 x111)) (x73 (= x45 x111)) (x136 (= x46 x86)) (x31 (= x59 x67)) (x146 (= x103 x59)) (x157 (= x95 x152)) (x58 (= x122 x59)) (x38 (= x112 x95)) (x147 (= x59 x123)) (x100 (= x3 x95)) (x49 (= x112 x86)) (x21 (= x45 x95)) (x114 (= x59 x127)) (x155 (= x59 x149)) (x94 (= x111 x46)) (x72 (= x3 x86)) (x34 (= x159 x86)) (x35 (= x95 x63)) (x8 (= x22 x103)) (x50 (= x118 x86)) (x106 (= x22 x67)) (x32 (= x19 x22)) (x29 (= x111 x19)) (x16 (= x43 x59)) (x115 (= x111 x6)) (x28 (= x122 x22)) (x104 (= x102 x59)) (x39 (= x152 x59)) (x98 (= x159 x22)) (x97 (= x109 x95)) (x131 (= x46 x59)) (x70 (= x64 x22)) (x150 (= x59 x19)) (x9 (= x47 x22)) (x13 (= x123 x22)) (x142 (= x14 x86)) (x134 (= x103 x86)) (x79 (= x111 x127)) (x53 (= x111 x123)) (x88 (= x6 x22)) (x92 (= x59 x109)) (x121 (= x89 x111)) (x158 (= x22 x3)) (x7 (= x25 x59)) (x82 (= x95 x64)) (x76 (= x59 x126)) (x96 (= x47 x95)) (x62 (= x111 x67)) (x156 (= x22 x43)) (x48 (= x22 x89)) (x140 (= x3 x111)) (x145 (= x67 x86)) (x137 (= x86 x123)) (x133 (= x59 x3)) (x57 (= x86 x89)) (x141 (= x25 x22)) (x56 (= x86 x63)) (x84 (= x111 x109)) (x153 (= x95 x46)) (x113 (= x22 x45)) (x135 (= x149 x95)) (x128 (= x118 x59)) (x93 (= x45 x86)) (x85 (= x103 x95)) (x119 (= x149 x111)) (x83 (= x95 x123)) (x40 (= x14 x59)) (x130 (= x103 x111)) (x99 (= x86 x43)) (x69 (= x59 x45)) (x77 (= x118 x22)) (x4 (= x86 x47)) (x154 (= x95 x67)) (x1 (= x6 x95)) (x110 (= x25 x111)) (x33 (= x86 x127)) (x120 (= x86 x25)) (x12 (= x127 x22)) (x81 (= x111 x43)) (x80 (= x22 x109)) (x68 (= x22 x152)) (x144 (= x111 x112)) (x5 (= x95 x43)) (x108 (= x46 x22)) (x23 (= x102 x86)) (x125 (= x86 x152)) (x17 (= x149 x86)) (x124 (= x59 x89)) (x60 (= x6 x86)) (x20 (= x126 x95)) (x65 (= x64 x111))) (and (and (and (and (and (and (and (or (or (or x119 (or x81 x53)) x121) x84) (or (or (or x130 (or x65 x53)) x115) x73)) (and (and (or (or x88 (or (or x70 x13) x8)) x113) (or (or x48 (or (or x13 x156) x24)) x80)) (and (and (or x21 (or x1 (or (or x83 x82) x85))) (or (or (or (or x83 x5) x135) x2) x97)) (and (or (or x124 (or x155 (or x16 x147))) x92) (or (or x66 (or (or x151 x147) x146)) x69))))) (and (or (or (or x134 (or x137 x36)) x60) x93) (or (or x57 (or (or x99 x137) x17)) x37))) (and (and (or (or x143 (or x34 (or x23 x99))) x142) (or (or (or (or x36 x23) x136) x4) x72)) (and (and (and (or (or x9 (or (or x27 x70) x108)) x158) (or (or (or (or x27 x156) x98) x51) x11)) (and (and (or (or (or x131 (or x151 x104)) x132) x133) (or (or (or x26 (or x16 x104)) x76) x40)) (and (or x117 (or x20 (or x90 (or x138 x5)))) (or x100 (or (or x153 (or x138 x82)) x96))))) (and (or x87 (or x75 (or (or x81 x91) x107))) (or x140 (or (or (or x91 x65) x94) x52)))))) (and (and (or (or (or x50 (or x34 x134)) x145) x125) (or (or x129 (or (or x136 x17) x50)) x56)) (and (and (and (and (or (or x154 (or (or x85 x90) x10)) x157) (or (or (or x10 (or x135 x153)) x116) x35)) (and (or x39 (or (or (or x146 x26) x128) x31)) (or (or (or (or x131 x155) x128) x58) x148))) (and (or x139 (or (or (or x108 x24) x77) x28)) (or (or x106 (or (or x8 x98) x77)) x68))) (and (or (or (or (or x130 x107) x101) x62) x18) (or (or (or x101 (or x119 x94)) x105) x42))))) (and (and (or (or (or x145 (or x4 x57)) x78) x49) (or x120 (or x78 (or (or x60 x143) x129)))) (and (and (and (or x30 (or x32 (or x106 (or x9 x48)))) (or (or (or x28 (or x88 x51)) x32) x141)) (and (and (or x38 (or x15 (or (or x2 x96) x154))) (or (or x15 (or x116 (or x20 x1))) x61)) (and (or x41 (or x150 (or x31 (or x124 x132)))) (or x7 (or (or x58 (or x66 x76)) x150))))) (and (or (or (or x62 (or x52 x121)) x29) x144) (or x110 (or x29 (or x105 (or x115 x75)))))))) (and (and (or x33 (or (or (or x142 x93) x56) x49)) (or x33 (or x120 (or (or x37 x72) x125)))) (and (and (or (or (or (or x84 x140) x18) x110) x79) (or x79 (or x144 (or (or x73 x87) x42)))) (and (and (or x12 (or (or (or x11 x113) x139) x30)) (or (or (or (or x158 x80) x68) x141) x12)) (and (and (or x114 (or (or (or x69 x40) x148) x41)) (or x114 (or (or x39 (or x133 x92)) x7))) (and (or (or (or (or x117 x21) x35) x38) x71) (or (or x61 (or x157 (or x97 x100))) x71))))))))))
(assert (let ((x13 (x54 x22 x95)) (x5 (x54 x111 x22)) (x43 (x54 x95 x22)) (x104 (x54 x111 x95)) (x159 (x54 x111 x86)) (x6 (x54 x59 x86)) (x89 (x54 x95 x86)) (x53 (x54 x22 x22)) (x126 (x54 x86 x59)) (x109 (x54 x22 x59)) (x103 (x54 x59 x111)) (x137 (x54 x22 x111)) (x102 (x54 x111 x111)) (x14 (x54 x86 x95)) (x151 (x54 x111 x59)) (x138 (x54 x86 x111)) (x16 (x54 x22 x86)) (x147 (x54 x59 x59)) (x45 (x54 x95 x59)) (x149 (x54 x95 x111)) (x82 (x54 x86 x22)) (x64 (x54 x59 x22)) (x83 (x54 x95 x95)) (x123 (x54 x59 x95)) (x46 (x54 x86 x86))) (and (and (and (and (and (and (and (and (or (or (or (= x147 x22) (or (= x147 x95) (= x147 x59))) (= x111 x147)) (= x147 x86)) (or (= x123 x86) (or (= x111 x123) (or (= x123 x22) (or (= x123 x59) (= x95 x123)))))) (or (or (or (= x64 x22) (or (= x64 x95) (= x59 x64))) (= x111 x64)) (= x86 x64))) (or (or (or (= x22 x103) (or (= x103 x59) (= x103 x95))) (= x103 x111)) (= x103 x86))) (or (= x6 x86) (or (or (= x22 x6) (or (= x95 x6) (= x59 x6))) (= x6 x111)))) (and (or (= x89 x86) (or (= x111 x89) (or (or (= x89 x95) (= x89 x59)) (= x22 x89)))) (and (and (or (or (= x111 x43) (or (= x22 x43) (or (= x43 x95) (= x59 x43)))) (= x86 x43)) (and (or (= x86 x83) (or (= x111 x83) (or (= x22 x83) (or (= x83 x59) (= x83 x95))))) (or (= x45 x86) (or (= x45 x111) (or (= x45 x22) (or (= x45 x59) (= x95 x45))))))) (or (or (= x111 x149) (or (= x22 x149) (or (= x95 x149) (= x59 x149)))) (= x149 x86))))) (and (or (or (or (= x22 x16) (or (= x59 x16) (= x16 x95))) (= x16 x111)) (= x86 x16)) (and (or (= x137 x86) (or (= x111 x137) (or (= x137 x22) (or (= x95 x137) (= x59 x137))))) (and (or (or (= x111 x53) (or (or (= x53 x95) (= x59 x53)) (= x53 x22))) (= x53 x86)) (and (or (or (or (or (= x13 x95) (= x13 x59)) (= x22 x13)) (= x13 x111)) (= x86 x13)) (or (= x86 x109) (or (or (= x109 x22) (or (= x95 x109) (= x109 x59))) (= x111 x109)))))))) (and (and (and (and (or (or (= x111 x104) (or (= x22 x104) (or (= x104 x59) (= x95 x104)))) (= x104 x86)) (or (or (= x111 x151) (or (= x151 x22) (or (= x151 x59) (= x151 x95)))) (= x86 x151))) (or (= x5 x86) (or (= x5 x111) (or (or (= x5 x95) (= x59 x5)) (= x22 x5))))) (or (= x102 x86) (or (or (or (= x102 x95) (= x102 x59)) (= x22 x102)) (= x102 x111)))) (or (= x159 x86) (or (or (= x22 x159) (or (= x159 x59) (= x95 x159))) (= x111 x159))))) (and (and (and (or (or (or (= x22 x82) (or (= x95 x82) (= x59 x82))) (= x111 x82)) (= x86 x82)) (and (or (or (= x111 x126) (or (= x126 x22) (or (= x126 x59) (= x126 x95)))) (= x86 x126)) (or (or (= x111 x14) (or (or (= x14 x59) (= x95 x14)) (= x22 x14))) (= x86 x14)))) (or (= x138 x86) (or (= x111 x138) (or (= x138 x22) (or (= x95 x138) (= x59 x138)))))) (or (= x46 x86) (or (or (or (= x95 x46) (= x46 x59)) (= x46 x22)) (= x111 x46)))))))
(assert (or (and (not (= (x54 x86 x86) x86)) (and (and (not (= x22 (x54 x22 x86))) (and (not (= x59 (x54 x59 x86))) (not (= (x54 x95 x86) x95)))) (not (= x111 (x54 x111 x86))))) (or (or (and (and (and (and (not (= (x54 x95 x22) x95)) (not (= (x54 x59 x22) x59))) (not (= x22 (x54 x22 x22)))) (not (= (x54 x111 x22) x111))) (not (= (x54 x86 x22) x86))) (or (and (and (and (not (= (x54 x22 x59) x22)) (and (not (= x95 (x54 x95 x59))) (not (= x59 (x54 x59 x59))))) (not (= x111 (x54 x111 x59)))) (not (= x86 (x54 x86 x59)))) (and (not (= (x54 x86 x95) x86)) (and (and (not (= (x54 x22 x95) x22)) (and (not (= (x54 x59 x95) x59)) (not (= (x54 x95 x95) x95)))) (not (= x111 (x54 x111 x95))))))) (and (not (= x86 (x54 x86 x111))) (and (and (and (not (= (x54 x95 x111) x95)) (not (= (x54 x59 x111) x59))) (not (= x22 (x54 x22 x111)))) (not (= (x54 x111 x111) x111)))))))
(assert (let ((x131 (x54 x95 x95)) (x153 (x54 x111 x95)) (x108 (x54 x111 x22)) (x156 (x54 x59 x95)) (x47 (x54 x59 x59)) (x34 (x54 x86 x111)) (x81 (x54 x22 x59)) (x135 (x54 x95 x111)) (x24 (x54 x22 x111)) (x36 (x54 x86 x59)) (x8 (x54 x22 x86)) (x118 (x54 x95 x86)) (x98 (x54 x86 x22)) (x67 (x54 x22 x22)) (x2 (x54 x86 x86)) (x134 (x54 x111 x86)) (x27 (x54 x59 x22)) (x26 (x54 x95 x22)) (x17 (x54 x111 x111)) (x128 (x54 x22 x95)) (x65 (x54 x59 x111)) (x70 (x54 x95 x59)) (x122 (x54 x86 x95)) (x99 (x54 x59 x86)) (x91 (x54 x111 x59))) (let ((x6 (not (= x59 x81))) (x53 (not (= x59 x135))) (x37 (not (= x36 x86))) (x10 (not (= x95 x26))) (x23 (not (= x70 x95))) (x105 (not (= x22 x98))) (x123 (not (= x70 x59))) (x82 (not (= x59 x34))) (x137 (not (= x108 x59))) (x148 (not (= x65 x111))) (x146 (not (= x131 x95))) (x145 (not (= x22 x2))) (x35 (not (= x98 x111))) (x124 (not (= x95 x99))) (x126 (not (= x98 x59))) (x101 (not (= x24 x95))) (x77 (not (= x95 x91))) (x14 (not (= x8 x59))) (x25 (not (= x26 x22))) (x3 (not (= x95 x47))) (x62 (not (= x22 x99))) (x28 (not (= x22 x108))) (x133 (not (= x27 x111))) (x78 (not (= x131 x111))) (x56 (not (= x34 x86))) (x13 (not (= x153 x59))) (x136 (not (= x95 x17))) (x20 (not (= x81 x22))) (x48 (not (= x67 x22))) (x97 (not (= x108 x111))) (x68 (not (= x47 x86))) (x43 (not (= x26 x59))) (x147 (not (= x47 x59))) (x104 (not (= x59 x36))) (x88 (not (= x153 x22))) (x75 (not (= x22 x118))) (x29 (not (= x22 x8))) (x107 (not (= x95 x108))) (x154 (not (= x47 x22))) (x11 (not (= x131 x86))) (x19 (not (= x70 x22))) (x60 (not (= x47 x111))) (x109 (not (= x59 x65))) (x106 (not (= x65 x22))) (x21 (not (= x111 x122))) (x18 (not (= x91 x86))) (x149 (not (= x67 x59))) (x117 (not (= x111 x118))) (x132 (not (= x122 x95))) (x96 (not (= x2 x95))) (x112 (not (= x22 x156))) (x80 (not (= x134 x111))) (x72 (not (= x99 x86))) (x7 (not (= x26 x111))) (x46 (not (= x59 x2))) (x4 (not (= x134 x22))) (x30 (not (= x27 x86))) (x121 (not (= x22 x17))) (x94 (not (= x153 x95))) (x15 (not (= x22 x128))) (x50 (not (= x95 x36))) (x130 (not (= x95 x135))) (x39 (not (= x111 x128))) (x141 (not (= x86 x70))) (x52 (not (= x22 x36))) (x90 (not (= x128 x95))) (x102 (not (= x59 x122))) (x110 (not (= x65 x86))) (x151 (not (= x59 x17))) (x1 (not (= x22 x131))) (x120 (not (= x86 x118))) (x69 (not (= x111 x67))) (x84 (not (= x86 x26))) (x12 (not (= x128 x86))) (x73 (not (= x153 x86))) (x33 (not (= x86 x2))) (x113 (not (= x86 x156))) (x158 (not (= x111 x2))) (x45 (not (= x27 x59))) (x71 (not (= x111 x34))) (x40 (not (= x91 x111))) (x100 (not (= x111 x24))) (x125 (not (= x122 x86))) (x57 (not (= x34 x22))) (x139 (not (= x86 x81))) (x61 (not (= x36 x111))) (x76 (not (= x95 x8))) (x114 (not (= x135 x111))) (x142 (not (= x8 x86))) (x152 (not (= x95 x67))) (x129 (not (= x111 x156))) (x31 (not (= x95 x118))) (x5 (not (= x59 x99))) (x116 (not (= x27 x22))) (x115 (not (= x22 x122))) (x85 (not (= x27 x95))) (x119 (not (= x65 x95))) (x157 (not (= x17 x111))) (x93 (not (= x86 x98))) (x16 (not (= x24 x59))) (x58 (not (= x34 x95))) (x32 (not (= x22 x24))) (x63 (not (= x81 x95))) (x9 (not (= x22 x91))) (x42 (not (= x108 x86))) (x127 (not (= x99 x111))) (x89 (not (= x59 x91))) (x138 (not (= x59 x134))) (x41 (not (= x111 x153))) (x140 (not (= x86 x67))) (x66 (not (= x95 x98))) (x87 (not (= x135 x86))) (x159 (not (= x59 x118))) (x155 (not (= x95 x156))) (x51 (not (= x135 x22))) (x64 (not (= x59 x156))) (x38 (not (= x8 x111))) (x150 (not (= x95 x134))) (x83 (not (= x59 x128))) (x103 (not (= x59 x131))) (x79 (not (= x86 x17))) (x49 (not (= x134 x86))) (x92 (not (= x111 x81))) (x144 (not (= x24 x86))) (x143 (not (= x111 x70)))) (or (and (and (and (or x56 x49) (and (or x93 x142) (and (or x37 x72) (or x120 x125)))) (or x33 x33)) (and (and (and (and (or x144 x42) (and (and (or x139 x30) (or x12 x84)) (or x140 x140))) (or x93 x142)) (and (and (or x37 x72) (and (and (and (or x68 x68) (or x113 x141)) (or x139 x30)) (or x18 x110))) (and (or x120 x125) (and (or x87 x73) (and (and (or x141 x113) (or x11 x11)) (or x84 x12)))))) (and (or x56 x49) (and (or x79 x79) (and (and (or x87 x73) (or x110 x18)) (or x42 x144)))))) (or (or (or (and (and (and (or x138 x82) (and (and (or x137 x16) (and (or x13 x53) (or x109 x89))) (or x151 x151))) (and (and (and (or x5 x104) (and (and (and (or x147 x147) (or x123 x64)) (or x6 x45)) (or x89 x109))) (and (and (and (or x83 x43) (and (or x103 x103) (or x64 x123))) (or x53 x13)) (or x102 x159))) (and (and (or x137 x16) (and (and (or x83 x43) (or x6 x45)) (or x149 x149))) (or x14 x126)))) (and (or x46 x46) (and (and (or x14 x126) (and (or x104 x5) (or x102 x159))) (or x138 x82)))) (and (and (and (and (and (and (or x77 x119) (and (and (or x3 x3) (or x23 x155)) (or x85 x63))) (or x124 x50)) (and (and (and (and (or x146 x146) (or x155 x23)) (or x90 x10)) (or x130 x94)) (or x132 x31))) (and (or x66 x76) (and (and (or x152 x152) (and (or x63 x85) (or x90 x10))) (or x107 x101)))) (and (or x150 x58) (and (and (or x107 x101) (and (or x130 x94) (or x77 x119))) (or x136 x136)))) (and (or x96 x96) (and (and (or x66 x76) (and (or x132 x31) (or x50 x124))) (or x150 x58))))) (and (and (and (or x57 x4) (and (or x29 x105) (and (or x62 x52) (or x115 x75)))) (or x145 x145)) (and (and (and (or x29 x105) (and (and (and (or x25 x15) (or x20 x116)) (or x48 x48)) (or x32 x28))) (and (and (or x52 x62) (and (and (or x116 x20) (and (or x19 x112) (or x154 x154))) (or x106 x9))) (and (or x75 x115) (and (or x51 x88) (and (and (or x1 x1) (or x19 x112)) (or x25 x15)))))) (and (or x57 x4) (and (and (and (or x106 x9) (or x51 x88)) (or x28 x32)) (or x121 x121)))))) (and (and (and (or x71 x80) (and (or x157 x157) (and (or x100 x97) (and (or x114 x41) (or x148 x40))))) (and (and (and (and (or x41 x114) (and (and (or x143 x129) (or x78 x78)) (or x7 x39))) (or x117 x21)) (and (and (or x40 x148) (and (and (or x129 x143) (or x60 x60)) (or x92 x133))) (or x61 x127))) (and (or x35 x38) (and (or x97 x100) (and (or x69 x69) (and (or x133 x92) (or x39 x7))))))) (and (and (and (or x38 x35) (and (or x117 x21) (or x127 x61))) (or x80 x71)) (or x158 x158))))))))
(assert (or (or (and (not (= (x54 x111 (x54 x111 x86)) x86)) (and (and (not (= x22 (x54 x111 (x54 x111 x22)))) (and (not (= x59 (x54 x111 (x54 x111 x59)))) (not (= x95 (x54 x111 (x54 x111 x95)))))) (not (= (x54 x111 (x54 x111 x111)) x111)))) (or (or (and (not (= (x54 x95 (x54 x95 x86)) x86)) (and (not (= x111 (x54 x95 (x54 x95 x111)))) (and (not (= x22 (x54 x95 (x54 x95 x22)))) (and (not (= x59 (x54 x95 (x54 x95 x59)))) (not (= x95 (x54 x95 (x54 x95 x95)))))))) (and (not (= (x54 x59 (x54 x59 x86)) x86)) (and (not (= x111 (x54 x59 (x54 x59 x111)))) (and (and (not (= x59 (x54 x59 (x54 x59 x59)))) (not (= (x54 x59 (x54 x59 x95)) x95))) (not (= (x54 x59 (x54 x59 x22)) x22)))))) (and (not (= x86 (x54 x22 (x54 x22 x86)))) (and (not (= (x54 x22 (x54 x22 x111)) x111)) (and (not (= x22 (x54 x22 (x54 x22 x22)))) (and (not (= x95 (x54 x22 (x54 x22 x95)))) (not (= (x54 x22 (x54 x22 x59)) x59)))))))) (and (not (= x86 (x54 x86 (x54 x86 x86)))) (and (and (and (not (= (x54 x86 (x54 x86 x95)) x95)) (not (= (x54 x86 (x54 x86 x59)) x59))) (not (= (x54 x86 (x54 x86 x22)) x22))) (not (= (x54 x86 (x54 x86 x111)) x111))))))
(assert (not (and (and (and (= x86 (x54 x86 x22)) (and (= x95 (x54 x86 x95)) (and (and (= (x54 x111 x86) x95) (and (and (and (and (and (= x22 (x54 x22 x86)) (and (and (and (= x86 (x54 x22 x95)) (and (and (and (= (x54 x95 x111) x86) (and (and (= x22 (x54 x95 x95)) (and (= x59 (x54 x95 x59)) (and (= (x54 x59 x86) x86) (and (and (= (x54 x59 x22) x111) (and (= (x54 x59 x59) x95) (= (x54 x59 x95) x59))) (= (x54 x59 x111) x22))))) (= (x54 x95 x22) x95))) (= x111 (x54 x95 x86))) (= (x54 x22 x59) x111))) (= x59 (x54 x22 x22))) (= x95 (x54 x22 x111)))) (= x86 (x54 x111 x59))) (= (x54 x111 x95) x111)) (= x22 (x54 x111 x22))) (= x59 (x54 x111 x111)))) (= x22 (x54 x86 x59))))) (= (x54 x86 x111) x111)) (= (x54 x86 x86) x59))))
(assert (let ((x13 (= (x54 x111 x95) x111)) (x14 (= x22 (x54 x22 x86))) (x102 (= x86 (x54 x86 x95))) (x16 (= x22 (x54 x22 x111))) (x126 (= x86 (x54 x86 x22))) (x103 (= (x54 x95 x95) x95)) (x151 (= (x54 x111 x111) x111)) (x46 (= (x54 x86 x86) x86)) (x64 (= x59 (x54 x59 x95))) (x53 (= (x54 x95 x111) x95)) (x104 (= (x54 x86 x59) x86)) (x89 (= (x54 x111 x59) x111)) (x123 (= x95 (x54 x95 x59))) (x83 (= (x54 x22 x95) x22)) (x43 (= (x54 x95 x22) x95)) (x159 (= (x54 x95 x86) x95)) (x149 (= x22 (x54 x22 x22))) (x5 (= (x54 x59 x86) x59)) (x82 (= x86 (x54 x86 x111))) (x109 (= (x54 x59 x111) x59)) (x147 (= (x54 x59 x59) x59)) (x137 (= x111 (x54 x111 x22))) (x6 (= x22 (x54 x22 x59))) (x138 (= (x54 x111 x86) x111)) (x45 (= x59 (x54 x59 x22)))) (or (or (or (or (and x151 x151) (or (and x137 x16) (or (and x53 x13) (and x109 x89)))) (and x138 x82)) (or (or (or (and x104 x5) (or (or (and x6 x45) (or (and x147 x147) (and x64 x123))) (and x89 x109))) (or (or (and x13 x53) (or (and x83 x43) (or (and x103 x103) (and x123 x64)))) (and x102 x159))) (or (or (or (or (and x45 x6) (and x83 x43)) (and x149 x149)) (and x137 x16)) (and x126 x14)))) (or (or (and x82 x138) (or (and x14 x126) (or (and x104 x5) (and x159 x102)))) (and x46 x46)))))
(assert (or (or (or (or (= x59 (x54 x59 (x54 x59 x59))) (= x95 (x54 x95 (x54 x95 x95)))) (= (x54 x22 (x54 x22 x22)) x22)) (= (x54 x111 (x54 x111 x111)) x111)) (= x86 (x54 x86 (x54 x86 x86)))))
(assert (and (or (= x86 (x54 (x54 x86 x86) x86)) (or (or (= x86 (x54 (x54 x22 x86) x22)) (or (= (x54 (x54 x59 x86) x59) x86) (= (x54 (x54 x95 x86) x95) x86))) (= x86 (x54 (x54 x111 x86) x111)))) (and (and (and (or (or (= x95 (x54 (x54 x111 x95) x111)) (or (= (x54 (x54 x22 x95) x22) x95) (or (= x95 (x54 (x54 x59 x95) x59)) (= (x54 (x54 x95 x95) x95) x95)))) (= x95 (x54 (x54 x86 x95) x86))) (or (= (x54 (x54 x86 x59) x86) x59) (or (or (or (= (x54 (x54 x95 x59) x95) x59) (= (x54 (x54 x59 x59) x59) x59)) (= x59 (x54 (x54 x22 x59) x22))) (= x59 (x54 (x54 x111 x59) x111))))) (or (= (x54 (x54 x86 x22) x86) x22) (or (= (x54 (x54 x111 x22) x111) x22) (or (or (= x22 (x54 (x54 x95 x22) x95)) (= (x54 (x54 x59 x22) x59) x22)) (= (x54 (x54 x22 x22) x22) x22))))) (or (or (= x111 (x54 (x54 x111 x111) x111)) (or (or (= x111 (x54 (x54 x59 x111) x59)) (= x111 (x54 (x54 x95 x111) x95))) (= (x54 (x54 x22 x111) x22) x111))) (= (x54 (x54 x86 x111) x86) x111)))))
(assert (and (and (and (not (= x22 (x54 x22 x22))) (and (not (= (x54 x59 x59) x59)) (not (= x95 (x54 x95 x95))))) (not (= (x54 x111 x111) x111))) (not (= x86 (x54 x86 x86)))))
(assert (let ((x123 (x54 x95 x95)) (x64 (x54 x22 x22)) (x103 (x54 x111 x111)) (x6 (x54 x86 x86)) (x147 (x54 x59 x59))) (and (not (= (x54 x6 x6) x86)) (and (not (= (x54 x103 x103) x111)) (and (and (not (= x59 (x54 x147 x147))) (not (= x95 (x54 x123 x123)))) (not (= (x54 x64 x64) x22)))))))
(assert (let ((x13 (x54 x22 x95)) (x137 (x54 x22 x111)) (x138 (x54 x86 x111)) (x89 (x54 x95 x86)) (x82 (x54 x86 x22)) (x43 (x54 x95 x22)) (x126 (x54 x86 x59)) (x5 (x54 x111 x22)) (x53 (x54 x22 x22)) (x109 (x54 x22 x59)) (x123 (x54 x59 x95)) (x46 (x54 x86 x86)) (x104 (x54 x111 x95)) (x83 (x54 x95 x95)) (x149 (x54 x95 x111)) (x64 (x54 x59 x22)) (x6 (x54 x59 x86)) (x147 (x54 x59 x59)) (x151 (x54 x111 x59)) (x16 (x54 x22 x86)) (x45 (x54 x95 x59)) (x103 (x54 x59 x111)) (x159 (x54 x111 x86)) (x14 (x54 x86 x95)) (x102 (x54 x111 x111))) (and (or (= (x54 x46 x46) x86) (or (= x111 (x54 x138 x138)) (or (= x22 (x54 x82 x82)) (or (= (x54 x14 x14) x95) (= (x54 x126 x126) x59))))) (and (and (and (or (or (or (= x22 (x54 x64 x64)) (or (= x59 (x54 x147 x147)) (= (x54 x123 x123) x95))) (= x111 (x54 x103 x103))) (= (x54 x6 x6) x86)) (or (= x86 (x54 x89 x89)) (or (= (x54 x149 x149) x111) (or (= (x54 x43 x43) x22) (or (= (x54 x45 x45) x59) (= (x54 x83 x83) x95)))))) (or (= x86 (x54 x16 x16)) (or (or (or (= x59 (x54 x109 x109)) (= (x54 x13 x13) x95)) (= (x54 x53 x53) x22)) (= x111 (x54 x137 x137))))) (or (or (or (= (x54 x5 x5) x22) (or (= (x54 x104 x104) x95) (= (x54 x151 x151) x59))) (= x111 (x54 x102 x102))) (= (x54 x159 x159) x86))))))
(assert (and (= (x54 x22 x95) x86) (and (and (= x22 (x54 x95 x95)) (= x59 (x54 x22 x22))) (= (x54 x95 x86) x111))))
(check-sat)
(exit)
